909 1029 375 495
794 914 360 466
702 822 360 475
708 828 360 475
754 874 375 495
829 949 420 540
954 1074 367 487
758 878 438 558
693 813 389 509
794 914 370 490
835 955 430 550
851 971 407 527
783 903 458 578
777 897 375 495
808 928 360 459
825 945 360 462
730 850 418 538
882 1002 388 508
832 952 373 493
741 861 438 558
784 904 429 549
873 993 401 521
826 946 422 542
773 893 399 519
773 893 387 507
784 904 413 533
937 1057 466 586
811 931 407 527
716 836 390 510
772 892 413 533
